(assert (forall ((pkt_0_8_a_0  Int  )(pkt_1_9_b_0  Int  )(pkt_2_a_c_0  Int  )(pkt_3_b_d_0  Int  )(pkt_4_c_e_0  Int  )(state_group_0_state_0_d_f_0  Int  )(state_group_0_state_1_e_10_0  Int  )) (let ((_n0 state_group_0_state_1_e_10_0 ))
(let ((_n1 pkt_4_c_e_0 ))
(let ((_n2 (=   _n1   _n0 ) ))
(let ((_n3 state_group_0_state_0_d_f_0 ))
(let ((_n4 pkt_3_b_d_0 ))
(let ((_n5 (<   _n4   _n3 ) ))
(let ((_n6 (not  _n5 ) ))
(let ((_n7 (and   _n6   _n2 ) ))
(let ((_n8 (or   _n5   _n7 ) ))
(let ((_n9 (ite  _n8   _n4   _n3  ) ))
(let ((_n10 (-  _n4 )))
(let ((_n11 (+   _n3   _n10 ) ))
(let ((_n12 false ))
(let ((_n13 (<   (ite  _n12  1 0)   _n11 ) ))
(let ((_n14 (ite  _n13   (ite  _n12  1 0)   _n1  ) ))
(let ((_n15 (-  _n14 )))
(let ((_n16 (ite  _n13   (ite  _n12  1 0)   _n0  ) ))
(let ((_n17 (+   _n16   _n15 ) ))
(let ((_n18 (=   _n17   (ite  _n12  1 0) ) ))
(let ((_n19 (ite  _n13   _n12   _n18  ) ))
(let ((_n20 (not  _n19 ) ))
(let ((_n21 (or   _n20   _n13 ) ))
(let ((_n22 (ite  _n21   (ite  _n12  1 0)   _n0  ) ))
(let ((_n23 (<   (ite  _n12  1 0)   _n22 ) ))
(let ((_n24 (ite  _n21   _n12   _n23  ) ))
(let ((_n25 (or   _n24   _n21 ) ))
(let ((_n26 (ite  _n25   (ite  _n12  1 0)   _n1  ) ))
(let ((_n27 (-  _n26 )))
(let ((_n28 (ite  _n25   (ite  _n12  1 0)   _n4  ) ))
(let ((_n29 (+   _n28   _n27 ) ))
(let ((_n30 (ite  _n25   (ite  _n12  1 0)   _n29  ) ))
(let ((_n31 (ite  _n25   _n3   (ite  _n12  1 0)  ) ))
(let ((_n32 (+   _n31   _n30 ) ))
(let ((_n33 (not  _n24 ) ))
(let ((_n34 (or   _n33   _n21 ) ))
(let ((_n35 (ite  _n34   (ite  _n12  1 0)   _n4  ) ))
(let ((_n36 (ite  _n34   _n3   (ite  _n12  1 0)  ) ))
(let ((_n37 (+   _n36   _n35 ) ))
(let ((_n38 (ite (=  (ite  _n24  1 0)  1)  _n37   _n32  ) ))
(let ((_n39 (ite (=  (ite  _n19  1 0)  1)  _n38   _n3  ) ))
(let ((_n40 (ite  _n13   _n1   (ite  _n12  1 0)  ) ))
(let ((_n41 (-  _n40 )))
(let ((_n42 (ite  _n13   _n0   (ite  _n12  1 0)  ) ))
(let ((_n43 (+   _n42   _n41 ) ))
(let ((_n44 3 ))
(let ((_n45 (<   _n44   _n43 ) ))
(let ((_n46 (and   _n13   _n45 ) ))
(let ((_n47 (not  _n13 ) ))
(let ((_n48 (or   _n46   _n47 ) ))
(let ((_n49 (ite  _n48   (ite  _n12  1 0)   _n4  ) ))
(let ((_n50 (ite  _n48   _n3   (ite  _n12  1 0)  ) ))
(let ((_n51 (+   _n50   _n49 ) ))
(let ((_n52 (ite (=  (ite  _n46  1 0)  1)  _n3   _n51  ) ))
(let ((_n53 (ite (=  (ite  _n13  1 0)  1)  _n52   _n39  ) ))
(let ((_n54 (=   _n53   _n9 ) ))
(let ((_n56 (ite  _n5   _n1   _n0  ) ))
(let ((_n57 (ite  _n48   (ite  _n12  1 0)   _n1  ) ))
(let ((_n58 (ite  _n48   _n0   (ite  _n12  1 0)  ) ))
(let ((_n59 (+   _n58   _n57 ) ))
(let ((_n60 (and   _n46   _n13 ) ))
(let ((_n61 (ite  _n60   _n4   (ite  _n12  1 0)  ) ))
(let ((_n62 (+   _n61   (ite  _n60  1 0) ) ))
(let ((_n63 (ite  _n60   _n62   (ite  _n12  1 0)  ) ))
(let ((_n64 (ite  _n60   (ite  _n12  1 0)   _n0  ) ))
(let ((_n65 (+   _n64   _n63 ) ))
(let ((_n66 (ite (=  (ite  _n46  1 0)  1)  _n65   _n59  ) ))
(let ((_n67 (ite (=  (ite  _n13  1 0)  1)  _n66   _n0  ) ))
(let ((_n68 (=   _n67   _n56 ) ))
(let ((_n70 pkt_0_8_a_0 ))
(let ((_n71 (<   _n70   (ite  _n12  1 0) ) ))
(let ((_n72 (ite  _n71   (ite  _n12  1 0)   _n70  ) ))
(let ((_n73 (ite (=  _n70  0)  _n70   (ite  _n12  1 0)  ) ))
(let ((_n74 (ite (=  _n70  0)  _n73   _n70  ) ))
(let ((_n75 (=   _n74   _n72 ) ))
(let ((_n77 (ite (=  _n70  0)  (ite  _n12  1 0)   _n70  ) ))
(let ((_n78 (=   _n77   _n72 ) ))
(let ((_n80 pkt_2_a_c_0 ))
(let ((_n81 (ite (=  _n80  0)  _n4   (ite  _n12  1 0)  ) ))
(let ((_n82 (ite (=  _n80  0)  _n81   _n4  ) ))
(let ((_n83 (=   _n82   _n4 ) ))
(let ((_n85 pkt_1_9_b_0 ))
(let ((_n86 (ite (=  _n85  0)  _n1   (ite  _n12  1 0)  ) ))
(let ((_n87 (ite (=  _n85  0)  _n86   _n1  ) ))
(let ((_n88 (=   _n87   _n1 ) ))
(implies  (and (and (>= state_group_0_state_1_e_10_0 0) (< state_group_0_state_1_e_10_0 1024 ))  (and (and (>= state_group_0_state_0_d_f_0 0) (< state_group_0_state_0_d_f_0 1024 ))  (and (and (>= pkt_4_c_e_0 0) (< pkt_4_c_e_0 1024 ))  (and (and (>= pkt_3_b_d_0 0) (< pkt_3_b_d_0 1024 ))  (and (and (>= pkt_2_a_c_0 0) (< pkt_2_a_c_0 1024 ))  (and (and (>= pkt_1_9_b_0 0) (< pkt_1_9_b_0 1024 ))  (and (>= pkt_0_8_a_0 0) (< pkt_0_8_a_0 1024 )) ) ) ) ) ) )   (and  _n54  _n68  _n75  _n78  _n83  _n88 )  )))))))))))))))))))))))))))))))))))))))))))))))))))))))))))))))))))))))))))))))))))))))
(check-sat)
(get-model)
(exit)